p cnf 17 17
-1 15 0 
-1 16 0 
-2 15 0 
-3 16 0 
-4 15 0 
-1 17 0 
-5 9 16 0 
-6 -5 9 16 0 
-7 -8 16 0 
-8 16 0 
-9 5 15 0 
-10 -1 15 0 
-11 13 17 0 
-11 13 -12 17 0 
-13 11 16 0 
-10 -2 -8 16 0 
-14 -8 16 0 
